(set-info :smt-lib-version 2.6)
(set-logic LIA)
(set-info
  :source |
 Generated by PSyCO 0.1
 More info in N. P. Lopes and J. Monteiro. Weakest Precondition Synthesis for
 Compiler Optimizations, VMCAI'14.
|)
(set-info :category "industrial")
(set-info :status sat)
(declare-fun R_E1_V6 () Bool)
(declare-fun W_S1_V6 () Bool)
(declare-fun R_E2_V6 () Bool)
(declare-fun W_S1_V3 () Bool)
(declare-fun W_S1_V1 () Bool)
(declare-fun R_S1_V6 () Bool)
(declare-fun R_S1_V4 () Bool)
(declare-fun R_S1_V5 () Bool)
(declare-fun R_S1_V2 () Bool)
(declare-fun R_S1_V3 () Bool)
(declare-fun R_S1_V1 () Bool)
(declare-fun R_E2_V4 () Bool)
(declare-fun R_E2_V2 () Bool)
(declare-fun R_E1_V5 () Bool)
(declare-fun DISJ_W_S1_R_S1 () Bool)
(declare-fun R_E2_V5 () Bool)
(declare-fun W_S1_V5 () Bool)
(declare-fun W_S1_V4 () Bool)
(declare-fun W_S1_V2 () Bool)
(declare-fun R_E1_V3 () Bool)
(declare-fun R_E1_V1 () Bool)
(declare-fun R_E2_V3 () Bool)
(declare-fun R_E2_V1 () Bool)
(declare-fun DISJ_W_S1_R_E1 () Bool)
(declare-fun DISJ_W_S1_R_E2 () Bool)
(assert
 (let
 (($x63315
   (forall
    ((V2_0 Int) (V5_0 Int) 
     (V4_0 Int) (V6_0 Int) 
     (MW_S1_V1 Bool) (MW_S1_V3 Bool) 
     (MW_S1_V2 Bool) (MW_S1_V5 Bool) 
     (MW_S1_V4 Bool) (MW_S1_V6 Bool) 
     (S1_V1_!8487 Int) (S1_V1_!8493 Int) 
     (S1_V1_!8500 Int) (S1_V1_!8509 Int) 
     (S1_V1_!8515 Int) (S1_V3_!8488 Int) 
     (S1_V3_!8494 Int) (S1_V3_!8501 Int) 
     (S1_V3_!8510 Int) (S1_V3_!8516 Int) 
     (S1_V2_!8489 Int) (S1_V2_!8495 Int) 
     (S1_V2_!8502 Int) (S1_V2_!8511 Int) 
     (S1_V2_!8517 Int) (E1_!8484 Int) 
     (E1_!8506 Int) (E1_!8508 Int) 
     (S1_V5_!8490 Int) (S1_V5_!8496 Int) 
     (S1_V5_!8503 Int) (S1_V5_!8512 Int) 
     (S1_V5_!8518 Int) (E2_!8485 Int) 
     (E2_!8486 Int) (E2_!8499 Int) 
     (E2_!8507 Int) (S1_V4_!8491 Int) 
     (S1_V4_!8497 Int) (S1_V4_!8504 Int) 
     (S1_V4_!8513 Int) (S1_V4_!8519 Int) 
     (S1_V6_!8492 Int) (S1_V6_!8498 Int) 
     (S1_V6_!8505 Int) (S1_V6_!8514 Int) 
     (S1_V6_!8520 Int))
    (let
    (($x63313
      (= (ite MW_S1_V1 S1_V1_!8500 (+ 1 (ite MW_S1_V1 S1_V1_!8493 E1_!8484)))
      (ite MW_S1_V1 S1_V1_!8515 (+ 1 (ite MW_S1_V1 S1_V1_!8509 E1_!8508))))))
    (let
    (($x62988
      (and $x63313
      (= (ite MW_S1_V3 S1_V3_!8501 E2_!8499)
      (ite MW_S1_V3 S1_V3_!8516 E2_!8507))
      (= (ite MW_S1_V2 S1_V2_!8502 V2_0) (ite MW_S1_V2 S1_V2_!8517 V2_0))
      (= (ite MW_S1_V5 S1_V5_!8503 V5_0) (ite MW_S1_V5 S1_V5_!8518 V5_0))
      (= (ite MW_S1_V4 S1_V4_!8504 V4_0) (ite MW_S1_V4 S1_V4_!8519 V4_0))
      (= (ite MW_S1_V6 S1_V6_!8505 V6_0) (ite MW_S1_V6 S1_V6_!8520 V6_0)))))
    (let
    (($x64144
      (>=
      (ite MW_S1_V1 S1_V1_!8515 (+ 1 (ite MW_S1_V1 S1_V1_!8509 E1_!8508)))
      (+ (- 1) (ite MW_S1_V2 S1_V2_!8517 V2_0)))))
    (let
    (($x63371
      (>=
      (ite MW_S1_V1 S1_V1_!8500 (+ 1 (ite MW_S1_V1 S1_V1_!8493 E1_!8484)))
      (+ (- 1) (ite MW_S1_V2 S1_V2_!8502 V2_0)))))
    (let
    (($x64182
      (>=
      (ite MW_S1_V3 S1_V3_!8494 (+ 1 (ite MW_S1_V3 S1_V3_!8488 E2_!8486)))
      (+ (- 1) (ite MW_S1_V4 S1_V4_!8497 V4_0)))))
    (let
    (($x62573
      (and (not (<= V4_0 E2_!8485)) 
      (not (<= V2_0 E1_!8484)) 
      (not (<= V4_0 E2_!8486))
      (not
      (<= (ite MW_S1_V4 S1_V4_!8491 V4_0)
      (+ 1 (ite MW_S1_V3 S1_V3_!8488 E2_!8486)))) $x64182
      (not
      (<= (ite MW_S1_V2 S1_V2_!8495 V2_0)
      (+ 1 (ite MW_S1_V1 S1_V1_!8493 E1_!8484))))
      (not (<= (ite MW_S1_V4 S1_V4_!8497 V4_0) E2_!8499))
      (>= (ite MW_S1_V3 S1_V3_!8501 E2_!8499)
      (+ (- 1) (ite MW_S1_V4 S1_V4_!8504 V4_0))) $x63371
      (not (<= V2_0 E1_!8506)) 
      (not (<= V4_0 E2_!8507)) 
      (not (<= V2_0 E1_!8508))
      (not
      (<= (ite MW_S1_V2 S1_V2_!8511 V2_0)
      (+ 1 (ite MW_S1_V1 S1_V1_!8509 E1_!8508)))) $x64144
      (>= (ite MW_S1_V3 S1_V3_!8516 E2_!8507)
      (+ (- 1) (ite MW_S1_V4 S1_V4_!8519 V4_0))))))
    (let
    (($x62464
      (and
      (or (not R_S1_V1)
      (= (ite MW_S1_V1 S1_V1_!8509 E1_!8508) (+ (- 1) E1_!8508)))
      (or (not R_S1_V3) (= (ite MW_S1_V3 S1_V3_!8510 E2_!8507) E2_!8507))
      (or (not R_S1_V2) (= (ite MW_S1_V2 S1_V2_!8511 V2_0) V2_0))
      (or (not R_S1_V5) (= (ite MW_S1_V5 S1_V5_!8512 V5_0) V5_0))
      (or (not R_S1_V4) (= (ite MW_S1_V4 S1_V4_!8513 V4_0) V4_0))
      (or (not R_S1_V6) (= (ite MW_S1_V6 S1_V6_!8514 V6_0) V6_0)))))
    (let (($x62880 (not $x62464)))
    (let
    (($x64028
      (and
      (or (not R_S1_V1)
      (= (ite MW_S1_V1 S1_V1_!8509 E1_!8508) (+ (- 1) E1_!8484)))
      (or (not R_S1_V3) (= (ite MW_S1_V3 S1_V3_!8510 E2_!8507) E2_!8486))
      (or (not R_S1_V2) (= (ite MW_S1_V2 S1_V2_!8511 V2_0) V2_0))
      (or (not R_S1_V5) (= (ite MW_S1_V5 S1_V5_!8512 V5_0) V5_0))
      (or (not R_S1_V4) (= (ite MW_S1_V4 S1_V4_!8513 V4_0) V4_0))
      (or (not R_S1_V6) (= (ite MW_S1_V6 S1_V6_!8514 V6_0) V6_0)))))
    (let (($x64135 (not $x64028)))
    (let
    (($x61057
      (and
      (or (not R_S1_V1)
      (= (ite MW_S1_V1 S1_V1_!8493 E1_!8484)
      (ite MW_S1_V1 S1_V1_!8509 E1_!8508)))
      (or (not R_S1_V3) (= E2_!8499 (ite MW_S1_V3 S1_V3_!8510 E2_!8507)))
      (or (not R_S1_V2)
      (= (ite MW_S1_V2 S1_V2_!8495 V2_0) (ite MW_S1_V2 S1_V2_!8511 V2_0)))
      (or (not R_S1_V5)
      (= (ite MW_S1_V5 S1_V5_!8496 V5_0) (ite MW_S1_V5 S1_V5_!8512 V5_0)))
      (or (not R_S1_V4)
      (= (ite MW_S1_V4 S1_V4_!8497 V4_0) (ite MW_S1_V4 S1_V4_!8513 V4_0)))
      (or (not R_S1_V6)
      (= (ite MW_S1_V6 S1_V6_!8498 V6_0) (ite MW_S1_V6 S1_V6_!8514 V6_0))))))
    (let
    (($x62821
      (and
      (or (not R_S1_V1)
      (= (ite MW_S1_V1 S1_V1_!8493 E1_!8484) (+ (- 1) E1_!8508)))
      (or (not R_S1_V3) (= E2_!8499 E2_!8507))
      (or (not R_S1_V2) (= (ite MW_S1_V2 S1_V2_!8495 V2_0) V2_0))
      (or (not R_S1_V5) (= (ite MW_S1_V5 S1_V5_!8496 V5_0) V5_0))
      (or (not R_S1_V4) (= (ite MW_S1_V4 S1_V4_!8497 V4_0) V4_0))
      (or (not R_S1_V6) (= (ite MW_S1_V6 S1_V6_!8498 V6_0) V6_0)))))
    (let (($x64736 (not $x62821)))
    (let (($x197 (not R_S1_V1)))
    (let
    (($x62582
      (and
      (or $x197
      (= (ite MW_S1_V1 S1_V1_!8493 E1_!8484)
      (+ (- 1) (ite MW_S1_V1 S1_V1_!8487 E1_!8484))))
      (or (not R_S1_V3)
      (= E2_!8499 (+ 1 (ite MW_S1_V3 S1_V3_!8488 E2_!8486))))
      (or (not R_S1_V2)
      (= (ite MW_S1_V2 S1_V2_!8495 V2_0) (ite MW_S1_V2 S1_V2_!8489 V2_0)))
      (or (not R_S1_V5)
      (= (ite MW_S1_V5 S1_V5_!8496 V5_0) (ite MW_S1_V5 S1_V5_!8490 V5_0)))
      (or (not R_S1_V4)
      (= (ite MW_S1_V4 S1_V4_!8497 V4_0) (ite MW_S1_V4 S1_V4_!8491 V4_0)))
      (or (not R_S1_V6)
      (= (ite MW_S1_V6 S1_V6_!8498 V6_0) (ite MW_S1_V6 S1_V6_!8492 V6_0))))))
    (let (($x62833 (not $x62582)))
    (let
    (($x63243
      (and
      (or $x197 (= (ite MW_S1_V1 S1_V1_!8493 E1_!8484) (+ (- 1) E1_!8484)))
      (or (not R_S1_V3) (= E2_!8499 E2_!8486))
      (or (not R_S1_V2) (= (ite MW_S1_V2 S1_V2_!8495 V2_0) V2_0))
      (or (not R_S1_V5) (= (ite MW_S1_V5 S1_V5_!8496 V5_0) V5_0))
      (or (not R_S1_V4) (= (ite MW_S1_V4 S1_V4_!8497 V4_0) V4_0))
      (or (not R_S1_V6) (= (ite MW_S1_V6 S1_V6_!8498 V6_0) V6_0)))))
    (let (($x59909 (not $x63243)))
    (let (($x199 (not R_S1_V3)))
    (let
    (($x61059
      (and
      (or $x197
      (= (ite MW_S1_V1 S1_V1_!8487 E1_!8484)
      (+ 1 (ite MW_S1_V1 S1_V1_!8509 E1_!8508))))
      (or $x199
      (= (ite MW_S1_V3 S1_V3_!8488 E2_!8486)
      (+ (- 1) (ite MW_S1_V3 S1_V3_!8510 E2_!8507))))
      (or (not R_S1_V2)
      (= (ite MW_S1_V2 S1_V2_!8489 V2_0) (ite MW_S1_V2 S1_V2_!8511 V2_0)))
      (or (not R_S1_V5)
      (= (ite MW_S1_V5 S1_V5_!8490 V5_0) (ite MW_S1_V5 S1_V5_!8512 V5_0)))
      (or (not R_S1_V4)
      (= (ite MW_S1_V4 S1_V4_!8491 V4_0) (ite MW_S1_V4 S1_V4_!8513 V4_0)))
      (or (not R_S1_V6)
      (= (ite MW_S1_V6 S1_V6_!8492 V6_0) (ite MW_S1_V6 S1_V6_!8514 V6_0))))))
    (let (($x64628 (not $x61059)))
    (let
    (($x63215
      (and (or $x197 (= (ite MW_S1_V1 S1_V1_!8487 E1_!8484) E1_!8508))
      (or $x199 (= (ite MW_S1_V3 S1_V3_!8488 E2_!8486) (+ (- 1) E2_!8507)))
      (or (not R_S1_V2) (= (ite MW_S1_V2 S1_V2_!8489 V2_0) V2_0))
      (or (not R_S1_V5) (= (ite MW_S1_V5 S1_V5_!8490 V5_0) V5_0))
      (or (not R_S1_V4) (= (ite MW_S1_V4 S1_V4_!8491 V4_0) V4_0))
      (or (not R_S1_V6) (= (ite MW_S1_V6 S1_V6_!8492 V6_0) V6_0)))))
    (let (($x62918 (not $x63215)))
    (let
    (($x64054
      (and (or $x197 (= (ite MW_S1_V1 S1_V1_!8487 E1_!8484) E1_!8484))
      (or $x199 (= (ite MW_S1_V3 S1_V3_!8488 E2_!8486) (+ (- 1) E2_!8486)))
      (or (not R_S1_V2) (= (ite MW_S1_V2 S1_V2_!8489 V2_0) V2_0))
      (or (not R_S1_V5) (= (ite MW_S1_V5 S1_V5_!8490 V5_0) V5_0))
      (or (not R_S1_V4) (= (ite MW_S1_V4 S1_V4_!8491 V4_0) V4_0))
      (or (not R_S1_V6) (= (ite MW_S1_V6 S1_V6_!8492 V6_0) V6_0)))))
    (let (($x63612 (not $x64054)))
    (let
    (($x63876
      (or
      (not
      (and (or $x197 (= E1_!8484 E1_!8508)) (or $x199 (= E2_!8486 E2_!8507))))
      (= S1_V6_!8492 S1_V6_!8514))))
    (let
    (($x63022
      (and
      (or $x197
      (= (ite MW_S1_V1 S1_V1_!8509 E1_!8508)
      (ite MW_S1_V1 S1_V1_!8493 E1_!8484)))
      (or $x199 (= (ite MW_S1_V3 S1_V3_!8510 E2_!8507) E2_!8499))
      (or (not R_S1_V2)
      (= (ite MW_S1_V2 S1_V2_!8511 V2_0) (ite MW_S1_V2 S1_V2_!8495 V2_0)))
      (or (not R_S1_V5)
      (= (ite MW_S1_V5 S1_V5_!8512 V5_0) (ite MW_S1_V5 S1_V5_!8496 V5_0)))
      (or (not R_S1_V4)
      (= (ite MW_S1_V4 S1_V4_!8513 V4_0) (ite MW_S1_V4 S1_V4_!8497 V4_0)))
      (or (not R_S1_V6)
      (= (ite MW_S1_V6 S1_V6_!8514 V6_0) (ite MW_S1_V6 S1_V6_!8498 V6_0))))))
    (let (($x60267 (not $x63022)))
    (let
    (($x61375
      (and
      (or $x197
      (= (ite MW_S1_V1 S1_V1_!8509 E1_!8508)
      (+ (- 1) (ite MW_S1_V1 S1_V1_!8487 E1_!8484))))
      (or $x199
      (= (ite MW_S1_V3 S1_V3_!8510 E2_!8507)
      (+ 1 (ite MW_S1_V3 S1_V3_!8488 E2_!8486))))
      (or (not R_S1_V2)
      (= (ite MW_S1_V2 S1_V2_!8511 V2_0) (ite MW_S1_V2 S1_V2_!8489 V2_0)))
      (or (not R_S1_V5)
      (= (ite MW_S1_V5 S1_V5_!8512 V5_0) (ite MW_S1_V5 S1_V5_!8490 V5_0)))
      (or (not R_S1_V4)
      (= (ite MW_S1_V4 S1_V4_!8513 V4_0) (ite MW_S1_V4 S1_V4_!8491 V4_0)))
      (or (not R_S1_V6)
      (= (ite MW_S1_V6 S1_V6_!8514 V6_0) (ite MW_S1_V6 S1_V6_!8492 V6_0))))))
    (let (($x63121 (not $x61375)))
    (let
    (($x63087
      (and (or $x197 (= E1_!8508 (+ 1 (ite MW_S1_V1 S1_V1_!8493 E1_!8484))))
      (or $x199 (= E2_!8507 E2_!8499))
      (or (not R_S1_V2) (= V2_0 (ite MW_S1_V2 S1_V2_!8495 V2_0)))
      (or (not R_S1_V5) (= V5_0 (ite MW_S1_V5 S1_V5_!8496 V5_0)))
      (or (not R_S1_V4) (= V4_0 (ite MW_S1_V4 S1_V4_!8497 V4_0)))
      (or (not R_S1_V6) (= V6_0 (ite MW_S1_V6 S1_V6_!8498 V6_0))))))
    (let (($x64431 (not $x63087)))
    (let
    (($x63426
      (not
      (and (or $x197 (= E1_!8508 E1_!8484)) (or $x199 (= E2_!8507 E2_!8486))))))
    (let
    (($x62278
      (and
      (or $x197
      (= (ite MW_S1_V1 S1_V1_!8487 E1_!8484)
      (+ 1 (ite MW_S1_V1 S1_V1_!8493 E1_!8484))))
      (or $x199 (= (ite MW_S1_V3 S1_V3_!8488 E2_!8486) (+ (- 1) E2_!8499)))
      (or (not R_S1_V2)
      (= (ite MW_S1_V2 S1_V2_!8489 V2_0) (ite MW_S1_V2 S1_V2_!8495 V2_0)))
      (or (not R_S1_V5)
      (= (ite MW_S1_V5 S1_V5_!8490 V5_0) (ite MW_S1_V5 S1_V5_!8496 V5_0)))
      (or (not R_S1_V4)
      (= (ite MW_S1_V4 S1_V4_!8491 V4_0) (ite MW_S1_V4 S1_V4_!8497 V4_0)))
      (or (not R_S1_V6)
      (= (ite MW_S1_V6 S1_V6_!8492 V6_0) (ite MW_S1_V6 S1_V6_!8498 V6_0))))))
    (let (($x62635 (not $x62278)))
    (let
    (($x59880
      (and (or (not R_E2_V2) (= V2_0 (ite MW_S1_V2 S1_V2_!8495 V2_0)))
      (or (not R_E2_V4) (= V4_0 (ite MW_S1_V4 S1_V4_!8497 V4_0)))
      (or (not R_E2_V6) (= V6_0 (ite MW_S1_V6 S1_V6_!8498 V6_0))))))
    (let
    (($x63819
      (and (or (not R_E2_V2) (= (ite MW_S1_V2 S1_V2_!8495 V2_0) V2_0))
      (or (not R_E2_V4) (= (ite MW_S1_V4 S1_V4_!8497 V4_0) V4_0))
      (or (not R_E2_V6) (= (ite MW_S1_V6 S1_V6_!8498 V6_0) V6_0)))))
    (let
    (($x62788
      (and (or $x197 (= E1_!8508 (+ 1 (ite MW_S1_V1 S1_V1_!8509 E1_!8508))))
      (or $x199 (= E2_!8507 (ite MW_S1_V3 S1_V3_!8510 E2_!8507)))
      (or (not R_S1_V2) (= V2_0 (ite MW_S1_V2 S1_V2_!8511 V2_0)))
      (or (not R_S1_V5) (= V5_0 (ite MW_S1_V5 S1_V5_!8512 V5_0)))
      (or (not R_S1_V4) (= V4_0 (ite MW_S1_V4 S1_V4_!8513 V4_0)))
      (or (not R_S1_V6) (= V6_0 (ite MW_S1_V6 S1_V6_!8514 V6_0))))))
    (let (($x62936 (not $x62788)))
    (let
    (($x63548
      (and (or $x197 (= E1_!8484 (+ 1 (ite MW_S1_V1 S1_V1_!8493 E1_!8484))))
      (or $x199 (= E2_!8486 E2_!8499))
      (or (not R_S1_V2) (= V2_0 (ite MW_S1_V2 S1_V2_!8495 V2_0)))
      (or (not R_S1_V5) (= V5_0 (ite MW_S1_V5 S1_V5_!8496 V5_0)))
      (or (not R_S1_V4) (= V4_0 (ite MW_S1_V4 S1_V4_!8497 V4_0)))
      (or (not R_S1_V6) (= V6_0 (ite MW_S1_V6 S1_V6_!8498 V6_0))))))
    (let (($x60209 (not $x63548)))
    (let
    (($x64619
      (and (or $x197 (= E1_!8508 (ite MW_S1_V1 S1_V1_!8487 E1_!8484)))
      (or $x199 (= E2_!8507 (+ 1 (ite MW_S1_V3 S1_V3_!8488 E2_!8486))))
      (or (not R_S1_V2) (= V2_0 (ite MW_S1_V2 S1_V2_!8489 V2_0)))
      (or (not R_S1_V5) (= V5_0 (ite MW_S1_V5 S1_V5_!8490 V5_0)))
      (or (not R_S1_V4) (= V4_0 (ite MW_S1_V4 S1_V4_!8491 V4_0)))
      (or (not R_S1_V6) (= V6_0 (ite MW_S1_V6 S1_V6_!8492 V6_0))))))
    (let
    (($x63729
      (and (or $x197 (= E1_!8484 (ite MW_S1_V1 S1_V1_!8487 E1_!8484)))
      (or $x199 (= E2_!8486 (+ 1 (ite MW_S1_V3 S1_V3_!8488 E2_!8486))))
      (or (not R_S1_V2) (= V2_0 (ite MW_S1_V2 S1_V2_!8489 V2_0)))
      (or (not R_S1_V5) (= V5_0 (ite MW_S1_V5 S1_V5_!8490 V5_0)))
      (or (not R_S1_V4) (= V4_0 (ite MW_S1_V4 S1_V4_!8491 V4_0)))
      (or (not R_S1_V6) (= V6_0 (ite MW_S1_V6 S1_V6_!8492 V6_0))))))
    (let
    (($x60237
      (and (or $x197 (= E1_!8484 (+ 1 (ite MW_S1_V1 S1_V1_!8509 E1_!8508))))
      (or $x199 (= E2_!8486 (ite MW_S1_V3 S1_V3_!8510 E2_!8507)))
      (or (not R_S1_V2) (= V2_0 (ite MW_S1_V2 S1_V2_!8511 V2_0)))
      (or (not R_S1_V5) (= V5_0 (ite MW_S1_V5 S1_V5_!8512 V5_0)))
      (or (not R_S1_V4) (= V4_0 (ite MW_S1_V4 S1_V4_!8513 V4_0)))
      (or (not R_S1_V6) (= V6_0 (ite MW_S1_V6 S1_V6_!8514 V6_0))))))
    (let
    (($x63020
      (or
      (not
      (and (or $x197 (= E1_!8484 E1_!8508)) (or $x199 (= E2_!8486 E2_!8507))))
      (= S1_V1_!8487 S1_V1_!8509))))
    (let
    (($x63929
      (and (or (not $x63729) (= S1_V1_!8487 S1_V1_!8493))
      (or $x60209 (= S1_V1_!8487 S1_V1_!8500)) $x63020
      (or (not $x60237) (= S1_V1_!8487 S1_V1_!8515))
      (or $x62918 (= S1_V1_!8493 S1_V1_!8509))
      (or $x62833 (= S1_V1_!8500 S1_V1_!8493))
      (or $x64736 (= S1_V1_!8500 S1_V1_!8509))
      (or $x63121 (= S1_V1_!8515 S1_V1_!8493))
      (or $x60267 (= S1_V1_!8515 S1_V1_!8500))
      (or $x62880 (= S1_V1_!8515 S1_V1_!8509))
      (or $x60209 (= S1_V3_!8488 S1_V3_!8501))
      (or $x63612 (= S1_V3_!8494 S1_V3_!8488))
      (or $x62635 (= S1_V3_!8494 S1_V3_!8501))
      (or $x64628 (= S1_V3_!8494 S1_V3_!8516))
      (or $x63426 (= S1_V3_!8510 S1_V3_!8488))
      (or (not $x64619) (= S1_V3_!8510 S1_V3_!8494))
      (or $x64431 (= S1_V3_!8510 S1_V3_!8501))
      (or $x62936 (= S1_V3_!8510 S1_V3_!8516))
      (or $x64135 (= S1_V3_!8516 S1_V3_!8488))
      (or $x60267 (= S1_V3_!8516 S1_V3_!8501))
      (or (not $x63729) (= S1_V2_!8489 S1_V2_!8495))
      (or $x59909 (= S1_V2_!8502 S1_V2_!8489))
      (or $x62833 (= S1_V2_!8502 S1_V2_!8495))
      (or $x64736 (= S1_V2_!8502 S1_V2_!8511))
      (or (not $x61057) (= S1_V2_!8502 S1_V2_!8517))
      (or $x63426 (= S1_V2_!8511 S1_V2_!8489))
      (or (not $x64619) (= S1_V2_!8511 S1_V2_!8495))
      (or $x62936 (= S1_V2_!8511 S1_V2_!8517))
      (or $x64135 (= S1_V2_!8517 S1_V2_!8489))
      (or $x63121 (= S1_V2_!8517 S1_V2_!8495)) 
      (= E1_!8484 E1_!8506) 
      (= E1_!8484 E1_!8508) 
      (= E1_!8508 E1_!8506) 
      (or $x60209 (= S1_V5_!8490 S1_V5_!8503))
      (or $x63612 (= S1_V5_!8496 S1_V5_!8490))
      (or $x62635 (= S1_V5_!8496 S1_V5_!8503))
      (or $x62918 (= S1_V5_!8496 S1_V5_!8512))
      (or $x64628 (= S1_V5_!8496 S1_V5_!8518))
      (or $x63426 (= S1_V5_!8512 S1_V5_!8490))
      (or $x64431 (= S1_V5_!8512 S1_V5_!8503))
      (or $x62936 (= S1_V5_!8512 S1_V5_!8518))
      (or $x64135 (= S1_V5_!8518 S1_V5_!8490))
      (or $x60267 (= S1_V5_!8518 S1_V5_!8503)) 
      (= E2_!8485 E2_!8486) 
      (or (not $x59880) (= E2_!8485 E2_!8499))
      (or (not $x63819) (= E2_!8499 E2_!8486)) 
      (= E2_!8507 E2_!8485) 
      (= E2_!8507 E2_!8486) 
      (or (not $x59880) (= E2_!8507 E2_!8499))
      (or $x63612 (= S1_V4_!8497 S1_V4_!8491))
      (or $x62635 (= S1_V4_!8497 S1_V4_!8504))
      (or $x62918 (= S1_V4_!8497 S1_V4_!8513))
      (or $x59909 (= S1_V4_!8504 S1_V4_!8491))
      (or $x63426 (= S1_V4_!8513 S1_V4_!8491))
      (or $x64431 (= S1_V4_!8513 S1_V4_!8504))
      (or $x64135 (= S1_V4_!8519 S1_V4_!8491))
      (or $x63121 (= S1_V4_!8519 S1_V4_!8497))
      (or $x60267 (= S1_V4_!8519 S1_V4_!8504))
      (or $x62880 (= S1_V4_!8519 S1_V4_!8513)) $x63876
      (or $x63612 (= S1_V6_!8498 S1_V6_!8492))
      (or $x62918 (= S1_V6_!8498 S1_V6_!8514))
      (or $x64628 (= S1_V6_!8498 S1_V6_!8520))
      (or $x59909 (= S1_V6_!8505 S1_V6_!8492))
      (or $x62833 (= S1_V6_!8505 S1_V6_!8498))
      (or $x64736 (= S1_V6_!8505 S1_V6_!8514))
      (or (not $x61057) (= S1_V6_!8505 S1_V6_!8520))
      (or $x64135 (= S1_V6_!8520 S1_V6_!8492))
      (or $x62880 (= S1_V6_!8520 S1_V6_!8514)) 
      (or (not MW_S1_V1) W_S1_V1) 
      (or (not MW_S1_V3) W_S1_V3) 
      (not MW_S1_V2) (not MW_S1_V4) 
      (or (not MW_S1_V6) W_S1_V6))))
    (or (not $x63929) (not $x62573) $x62988))))))))))))))))))))))))))))))))))))))))))))))))))
 (let (($x119 (not R_E1_V5)))
 (let (($x40 (and W_S1_V6 R_S1_V6)))
 (let (($x32 (and W_S1_V3 R_S1_V3)))
 (let (($x30 (and W_S1_V1 R_S1_V1)))
 (let (($x134 (not R_E2_V5)))
 (let (($x199 (not R_S1_V3)))
 (let (($x59792 (not W_S1_V3)))
 (let (($x62785 (or DISJ_W_S1_R_S1 $x59792 $x199)))
 (let (($x59788 (not W_S1_V1)))
 (let (($x63884 (or DISJ_W_S1_R_S1 $x59788)))
 (let (($x59799 (not W_S1_V4)))
 (let (($x59796 (not W_S1_V2)))
 (let (($x115 (not R_E1_V3)))
 (let (($x113 (not R_E1_V1)))
 (let (($x130 (not R_E2_V3)))
 (let (($x128 (not R_E2_V1)))
 (and DISJ_W_S1_R_E2 DISJ_W_S1_R_E1 $x128 $x130 $x113 $x115 $x59796 $x59799
 $x63884 $x62785 W_S1_V5 $x134
 (= DISJ_W_S1_R_S1 (not (or $x30 $x32 R_S1_V5 $x40))) $x119 $x63315
 (not (and W_S1_V6 R_E2_V6)) 
 (not (and W_S1_V6 R_E1_V6)))))))))))))))))))))
(check-sat)
(exit)

